attachment/production/6-arbitrary-recipes/production-arbitrary-recipes-raw-costs.log
GLPSOL: GLPK LP/MIP Solver, v4.65
Parameter(s) specified in the command line:
 -m production-arbitrary-recipes.mod -d production-arbitrary-recipes-raw-costs.dat
 --log production-arbitrary-recipes-raw-costs.log
Reading model section from production-arbitrary-recipes.mod...
46 lines were read
Reading data section from production-arbitrary-recipes-raw-costs.dat...
40 lines were read
Checking (line 5)...
Generating Material_Balance...
Generating Total_Costs_Calc...
Generating Total_Revenue_Calc...
Generating Profit_Calc...
Generating Profit...
Model has been successfully generated
GLPK Simplex Optimizer, v4.65
11 rows, 13 columns, 34 non-zeros
Preprocessing...
4 rows, 3 columns, 11 non-zeros
Scaling...
 A: min|aij| =  1.000e+00  max|aij| =  4.500e+03  ratio =  4.500e+03
GM: min|aij| =  4.317e-01  max|aij| =  2.317e+00  ratio =  5.367e+00
EQ: min|aij| =  1.863e-01  max|aij| =  1.000e+00  ratio =  5.367e+00
Constructing initial basis...
Size of triangular part is 4
      0: obj =   7.265000000e+03 inf =   1.343e+02 (2)
      3: obj =   1.577451613e+03 inf =   0.000e+00 (0)
OPTIMAL LP SOLUTION FOUND
Time used:   0.0 secs
Memory used: 0.1 Mb (134577 bytes)
Total Costs: 20876.4
Total Revenue: 22453.9
Profit: 1577.45
Volume of recipe MakeP1: 25.4839
Volume of recipe MakeP2: 164.516
Volume of recipe MakeP3: 10
Consumption of raw A: 13322.6
Consumption of raw B: 31000
Consumption of raw C: 291065
Consumption of raw D: 200
Production of product P1: 25.4839
Production of product P2: 164.516
Production of product P3: 10
Model has been successfully processed
